Maximize
 obj:2597748.3941 x0 + 1947807.6398 x1 + 2593389.3431 x2 + 649528.238801 x3 + 2596687.41765 x4 + 973622.0351 x5 + 324467.965301 x6 + 2597782.8358 x7 + 972237.218902 x8 + 1298351.42615 x9 + 1296034.88245 x10 + 1295567.2573 x11 + 1292895.5358 x12 + 1295826.6048 x13 + 2597418.7525 x14 + 1297729.7803 x15 + 162330.977899 x16 + 2590540.13785 x17 + 2273836.1265 x18 + 1297344.68505 x19 + 2429502.8866 x20 + 162501.91785 x21 + 1831549.746 x22 + 2110210.5641 x23 + 324687.580352 x24 + 161939.931399 x25 + 162345.75475 x26 + 1298872.0614 x27 + 2590605.9772 x28 + 2592685.767 x29 + 323825.751202 x30 + 1026139.8885 x31 + 324441.676751 x32 + 1619596.2348 x33 + 1298581.3116 x34 + 973243.883348 x35 + 1026832.347 x36 + 648099.435997 x37 + 161985.9116 x38 + 648439.8697 x39 + 162076.001 x40 + 648403.7407 x41 + 2589227.3198 x42 + 1131211.33745 x43
Subject To
 c1:22048 x0 + 16338 x1 + 21332 x2 + 5562 x3 + 21668 x4 + 7806 x5 + 2694 x6 + 21527 x7 + 7810 x8 + 10713 x9 + 11173 x10 + 10810 x11 + 10574 x12 + 10833 x13 + 20336 x14 + 10496 x15 + 1255 x16 + 20197 x17 + 15211 x18 + 9726 x19 + 16824 x20 + 1239 x21 + 13656 x22 + 14442 x23 + 1984 x24 + 863 x25 + 1143 x26 + 9304 x27 + 19704 x28 + 27384 x29 + 2328 x30 + 6801 x31 + 2117 x32 + 12719 x33 + 12812 x34 + 7149 x35 + 8332 x36 + 5395 x37 + 1400 x38 + 6403 x39 + 1400 x40 + 6035 x41 + 21914 x42 + 11886 x43 >= 0
 c2:22048 x0 + 16338 x1 + 21332 x2 + 5562 x3 + 21668 x4 + 7806 x5 + 2694 x6 + 21527 x7 + 7810 x8 + 10713 x9 + 11173 x10 + 10810 x11 + 10574 x12 + 10833 x13 + 20336 x14 + 10496 x15 + 1255 x16 + 20197 x17 + 15211 x18 + 9726 x19 + 16824 x20 + 1239 x21 + 13656 x22 + 14442 x23 + 1984 x24 + 863 x25 + 1143 x26 + 9304 x27 + 19704 x28 + 27384 x29 + 2328 x30 + 6801 x31 + 2117 x32 + 12719 x33 + 12812 x34 + 7149 x35 + 8332 x36 + 5395 x37 + 1400 x38 + 6403 x39 + 1400 x40 + 6035 x41 + 21914 x42 + 11886 x43 <= 261720
Bounds
0 <= x0 <= 1
0 <= x1 <= 1
0 <= x2 <= 1
0 <= x3 <= 1
0 <= x4 <= 1
0 <= x5 <= 1
0 <= x6 <= 1
0 <= x7 <= 1
0 <= x8 <= 1
0 <= x9 <= 1
0 <= x10 <= 1
0 <= x11 <= 1
0 <= x12 <= 1
0 <= x13 <= 1
0 <= x14 <= 1
0 <= x15 <= 1
0 <= x16 <= 1
0 <= x17 <= 1
0 <= x18 <= 1
0 <= x19 <= 1
0 <= x20 <= 1
0 <= x21 <= 1
0 <= x22 <= 1
0 <= x23 <= 1
0 <= x24 <= 1
0 <= x25 <= 1
0 <= x26 <= 1
0 <= x27 <= 1
0 <= x28 <= 1
0 <= x29 <= 1
0 <= x30 <= 1
0 <= x31 <= 1
0 <= x32 <= 1
0 <= x33 <= 1
0 <= x34 <= 1
0 <= x35 <= 1
0 <= x36 <= 1
0 <= x37 <= 1
0 <= x38 <= 1
0 <= x39 <= 1
0 <= x40 <= 1
0 <= x41 <= 1
0 <= x42 <= 1
0 <= x43 <= 1
Binaries 
x0 x1 x2 x3 x4 x5 x6 x7 x8 x9 x10 x11 x12 x13 x14 x15 x16 x17 x18 x19 x20 x21 x22 x23 x24 x25 x26 x27 x28 x29 x30 x31 x32 x33 x34 x35 x36 x37 x38 x39 x40 x41 x42 x43 
End